
  12    4
  10   10   10   10

   0   0   0   0   0   3 2 3 5 
   9  10  10  10  10   2 7 4 
  10  10  10  10  10   3 9 7 6 
  10  10  10  10  10   2 9 6 
   4  10  10  10  10   1 6 
   8  10  10  10  10   1 8 
   5  10  10  10  10   1 8 
   6  10  10  10  10   2 11 10 
   5  10  10  10  10   1 10 
   9  10  10  10  10   1 12
   3  10  10  10  10   1 12
   0   0   0   0   0   0 
